(declare-fun var0 () String)
(assert (str.in.re var0 (re.++ (re.+ (re.* (str.to.re "iii"))) (re.++ (re.union (re.+ (str.to.re "g")) (re.+ (str.to.re "hhh"))) (re.++ (re.union (re.+ (str.to.re "eee")) (re.+ (str.to.re "ff"))) (re.++ (re.* (re.+ (str.to.re "ddd"))) (re.++ (re.union (re.union (str.to.re "aaa") (str.to.re "bbb")) (re.* (str.to.re "ccc"))) (re.++ (re.union (re.* (str.to.re "777")) (re.union (str.to.re "8") (str.to.re "99"))) (re.++ (re.union (re.* (str.to.re "5")) (re.* (str.to.re "66"))) (re.++ (re.* (re.* (str.to.re "44"))) (re.++ (re.union (re.union (str.to.re "11") (str.to.re "222")) (re.+ (str.to.re "3"))) (re.* (re.+ (str.to.re "00"))))))))))))))
(assert (<= 451 (str.len var0)))
(check-sat)